/*********************************************
 * OPL 12.6.0.0 Data
 * Author: Adrian Rodriguez Bazaga, Pau Rodriguez Esmerats
 * Creation Date: 01/12/2017 at 05:00:18
 *********************************************/

nNurses=915;
maxConsec=2;
maxPresence=7;
maxHours=5;
minHours=1;
demand= [172 184 253 259 184 253 259 193 188 106 22 25 30 36 41 27 29 17 19 11 151 290 150 217  ];
